30	100	100	100
1	19	6
17	13	17
17	7	16
4	19	13
5	11	10
5	13	34
33	23	34
31	33	8
3	1	7
18	2	27
15	26	17
29	32	11
5	26	26
14	33	34
24	30	18
24	25	15
10	6	11
20	13	23
12	31	31
16	29	6
19	22	19
5	4	24
28	1	30
30	1	2
22	21	7
7	26	23
8	8	2
5	27	7
18	22	6
17	3	12
